(set-info :status unsat) ; swine result
(set-logic ALL)
(declare-fun i1 () Int)
(declare-fun it1 () Int)
(declare-fun i2 () Int)
(declare-fun it2 () Int)
(declare-fun i3 () Int)
(declare-fun it3 () Int)
(declare-fun it4 () Int)
(declare-fun i4 () Int)
(declare-fun i5 () Int)
(declare-fun it5 () Int)
(declare-fun i6 () Int)
(declare-fun it6 () Int)
(declare-fun it92 () Int)
(declare-fun it1182 () Int)
(declare-fun it1183 () Int)
(declare-fun it1184 () Int)
(declare-fun it1185 () Int)
(declare-fun it1186 () Int)
(declare-fun it1187 () Int)
(declare-fun it13 () Int)
(declare-fun it1468 () Int)
(declare-fun it1469 () Int)
(declare-fun it1470 () Int)
(declare-fun it1471 () Int)
(declare-fun it1472 () Int)
(declare-fun it1473 () Int)
(declare-fun it1188 () Int)
(declare-fun it1474 () Int)
(assert (= (+ i1 (- 1)) 0))
(assert (= (+ it1 (- 2)) 0))
(assert (= (+ it2 (* i2 (- 1)) (- 1)) 0))
(assert (= (+ it3 (* i3 (- 1))) 0))
(assert (= (+ (* i4 (- 1)) it4) 0))
(assert (= (+ it5 (* i5 (- 1))) 0))
(assert (= (+ it6 (* i6 (- 1))) 0))
(assert (let ((a!1 (> (+ (+ it3 (* it92 (- 2))) 1) 0))
      (a!2 (> (+ (+ it3 (* it92 (- 2))) 2) 0)))
  (and a!1
       a!2
       (>= (+ it1 (- 2)) 0)
       (>= (+ it92 (- 1)) 0)
       (>= (+ (* it1 (- 1)) 2) 0))))
(assert (= (+ it1182 (* it1 (- 1))) 0))
(assert (= (+ (* it2 (- 1)) it1183 (* it92 (- 2))) 0))
(assert (= (+ (* it3 (- 1)) it1184 (* it92 2)) 0))
(assert (= (+ (+ 0 it1185) (* (exp (- 1) it92) (+ 0 it4) (+ 0 (- 1))))
   (+ 0 0)))
(assert (= (+ (* (+ 0 it5) (exp (- 1) it92) (+ 0 (- 1))) (+ 0 it1186))
   (+ 0 0)))
(assert (= (+ (+ 0 (* it3 it92 (- 6)))
      (* (+ 0 it3) (exp it92 2) (+ 0 12))
      (* (exp it92 3) (+ 0 (- 8)))
      (* (exp it92 2) (+ 0 6))
      (+ 0 (* it6 (- 3)))
      (+ 0 (* it1187 3))
      (* (exp it3 2) (+ 0 it92) (+ 0 (- 6)))
      (+ 0 (* it92 (- 1))))
   (+ 0 0)))
(assert (let ((a!1 (> (+ (+ it1184 (* it13 (- 2))) 2) 0))
      (a!2 (> (+ (+ it1184 (* it13 (- 2))) 1) 0)))
  (and (>= (+ it1182 (- 2)) 0)
       (>= (+ it13 (- 1)) 0)
       a!1
       a!2
       (>= (+ (* it1182 (- 1)) 2) 0))))
(assert (= (+ it1468 (* it1182 (- 1))) 0))
(assert (= (+ it1469 (* it1183 (- 1)) (* it13 (- 2))) 0))
(assert (= (+ it1470 (* it1184 (- 1)) (* it13 2)) 0))
(assert (= (+ (* (+ 0 it1185) (exp (- 1) it13) (+ 0 (- 1))) (+ 0 it1471))
   (+ 0 0)))
(assert (= (+ (+ 0 it1472) (* (+ 0 it1186) (exp (- 1) it13) (+ 0 (- 1))))
   (+ 0 0)))
(assert (= (+ (* (exp it1184 2) (+ 0 it13) (+ 0 (- 6)))
      (* (exp it13 3) (+ 0 (- 8)))
      (* (exp it13 2) (+ 0 6))
      (+ 0 (* it1473 3))
      (* (+ 0 it1184) (exp it13 2) (+ 0 12))
      (+ 0 (* it1187 (- 3)))
      (+ 0 (* it13 (- 1)))
      (+ 0 (* it1184 it13 (- 6))))
   (+ 0 0)))
(assert (let ((a!1 (> (+ (+ it1470 (* it1188 (- 2))) 1) 0))
      (a!2 (> (+ (+ it1470 (* it1188 (- 2))) 2) 0))
      (a!3 (> (+ (+ it1470 (* it1474 (- 2)) (* it1188 (- 2))) 2) 0))
      (a!4 (> (+ (+ it1470 (* it1474 (- 2)) (* it1188 (- 2))) 1) 0)))
  (and (<= (+ (* it1474 2) (* it1188 2)) 0)
       a!1
       a!2
       a!3
       (>= (+ it1468 (- 2)) 0)
       (>= (+ it1474 (- 1)) 0)
       a!4
       (>= (+ (* it1468 (- 1)) 2) 0)
       (>= (+ it1188 (- 1)) 0))))
(check-sat)
